c nIsolatedPIs 0
c maxPI 16
p cnf 160 433
c gate 17 1 15 0
1 -17 0
15 -17 0
-1 -15 17 0
c gate 18 2 13 0
2 -18 0
13 -18 0
-2 -13 18 0
c gate 19 3 12 0
3 -19 0
12 -19 0
-3 -12 19 0
c gate 20 18 19 0
18 -20 0
19 -20 0
-18 -19 20 0
c gate 21 1 14 0
1 -21 0
14 -21 0
-1 -14 21 0
c gate 22 -18 -19 0
-18 -22 0
-19 -22 0
18 19 22 0
c gate 23 -20 -22 0
-20 -23 0
-22 -23 0
20 22 23 0
c gate 24 21 23 0
21 -24 0
23 -24 0
-21 -23 24 0
c gate 25 -20 -24 0
-20 -25 0
-24 -25 0
20 24 25 0
c gate 26 17 -25 0
17 -26 0
-25 -26 0
-17 25 26 0
c gate 27 2 14 0
2 -27 0
14 -27 0
-2 -14 27 0
c gate 28 3 13 0
3 -28 0
13 -28 0
-3 -13 28 0
c gate 29 4 12 0
4 -29 0
12 -29 0
-4 -12 29 0
c gate 30 -28 -29 0
-28 -30 0
-29 -30 0
28 29 30 0
c gate 31 28 29 0
28 -31 0
29 -31 0
-28 -29 31 0
c gate 32 -30 -31 0
-30 -32 0
-31 -32 0
30 31 32 0
c gate 33 27 32 0
27 -33 0
32 -33 0
-27 -32 33 0
c gate 34 -27 -32 0
-27 -34 0
-32 -34 0
27 32 34 0
c gate 35 -33 -34 0
-33 -35 0
-34 -35 0
33 34 35 0
c gate 36 5 11 0
5 -36 0
11 -36 0
-5 -11 36 0
c gate 37 6 10 0
6 -37 0
10 -37 0
-6 -10 37 0
c gate 38 7 9 0
7 -38 0
9 -38 0
-7 -9 38 0
c gate 39 -37 -38 0
-37 -39 0
-38 -39 0
37 38 39 0
c gate 40 37 38 0
37 -40 0
38 -40 0
-37 -38 40 0
c gate 41 -39 -40 0
-39 -41 0
-40 -41 0
39 40 41 0
c gate 42 36 41 0
36 -42 0
41 -42 0
-36 -41 42 0
c gate 43 -36 -41 0
-36 -43 0
-41 -43 0
36 41 43 0
c gate 44 -42 -43 0
-42 -44 0
-43 -44 0
42 43 44 0
c gate 45 5 10 0
5 -45 0
10 -45 0
-5 -10 45 0
c gate 46 6 9 0
6 -46 0
9 -46 0
-6 -9 46 0
c gate 47 -45 -46 0
-45 -47 0
-46 -47 0
45 46 47 0
c gate 48 45 46 0
45 -48 0
46 -48 0
-45 -46 48 0
c gate 49 -47 -48 0
-47 -49 0
-48 -49 0
47 48 49 0
c gate 50 4 11 0
4 -50 0
11 -50 0
-4 -11 50 0
c gate 51 49 -50 0
49 -51 0
-50 -51 0
-49 50 51 0
c gate 52 -47 -51 0
-47 -52 0
-51 -52 0
47 51 52 0
c gate 53 44 52 0
44 -53 0
52 -53 0
-44 -52 53 0
c gate 54 -44 -52 0
-44 -54 0
-52 -54 0
44 52 54 0
c gate 55 -53 -54 0
-53 -55 0
-54 -55 0
53 54 55 0
c gate 56 35 55 0
35 -56 0
55 -56 0
-35 -55 56 0
c gate 57 -35 -55 0
-35 -57 0
-55 -57 0
35 55 57 0
c gate 58 -56 -57 0
-56 -58 0
-57 -58 0
56 57 58 0
c gate 59 4 10 0
4 -59 0
10 -59 0
-4 -10 59 0
c gate 60 5 9 0
5 -60 0
9 -60 0
-5 -9 60 0
c gate 61 59 60 0
59 -61 0
60 -61 0
-59 -60 61 0
c gate 62 3 11 0
3 -62 0
11 -62 0
-3 -11 62 0
c gate 63 -59 -60 0
-59 -63 0
-60 -63 0
59 60 63 0
c gate 64 -61 -63 0
-61 -64 0
-63 -64 0
61 63 64 0
c gate 65 62 64 0
62 -65 0
64 -65 0
-62 -64 65 0
c gate 66 -61 -65 0
-61 -66 0
-65 -66 0
61 65 66 0
c gate 67 -49 50 0
-49 -67 0
50 -67 0
49 -50 67 0
c gate 68 -51 -67 0
-51 -68 0
-67 -68 0
51 67 68 0
c gate 69 66 68 0
66 -69 0
68 -69 0
-66 -68 69 0
c gate 70 -66 -68 0
-66 -70 0
-68 -70 0
66 68 70 0
c gate 71 -69 -70 0
-69 -71 0
-70 -71 0
69 70 71 0
c gate 72 -21 -23 0
-21 -72 0
-23 -72 0
21 23 72 0
c gate 73 -24 -72 0
-24 -73 0
-72 -73 0
24 72 73 0
c gate 74 71 -73 0
71 -74 0
-73 -74 0
-71 73 74 0
c gate 75 -69 -74 0
-69 -75 0
-74 -75 0
69 74 75 0
c gate 76 58 75 0
58 -76 0
75 -76 0
-58 -75 76 0
c gate 77 -17 25 0
-17 -77 0
25 -77 0
17 -25 77 0
c gate 78 -26 -77 0
-26 -78 0
-77 -78 0
26 77 78 0
c gate 79 -58 -75 0
-58 -79 0
-75 -79 0
58 75 79 0
c gate 80 -76 -79 0
-76 -80 0
-79 -80 0
76 79 80 0
c gate 81 78 80 0
78 -81 0
80 -81 0
-78 -80 81 0
c gate 82 -76 -81 0
-76 -82 0
-81 -82 0
76 81 82 0
c gate 83 8 9 0
8 -83 0
9 -83 0
-8 -9 83 0
c gate 84 82 -83 0
82 -84 0
-83 -84 0
-82 83 84 0
c gate 85 -82 83 0
-82 -85 0
83 -85 0
82 -83 85 0
c gate 86 -84 -85 0
-84 -86 0
-85 -86 0
84 85 86 0
c gate 87 3 14 0
3 -87 0
14 -87 0
-3 -14 87 0
c gate 88 7 10 0
7 -88 0
10 -88 0
-7 -10 88 0
c gate 89 6 11 0
6 -89 0
11 -89 0
-6 -11 89 0
c gate 90 -88 89 0
-88 -90 0
89 -90 0
88 -89 90 0
c gate 91 88 -89 0
88 -91 0
-89 -91 0
-88 89 91 0
c gate 92 -90 -91 0
-90 -92 0
-91 -92 0
90 91 92 0
c gate 93 87 -92 0
87 -93 0
-92 -93 0
-87 92 93 0
c gate 94 -87 92 0
-87 -94 0
92 -94 0
87 -92 94 0
c gate 95 -93 -94 0
-93 -95 0
-94 -95 0
93 94 95 0
c gate 96 2 15 0
2 -96 0
15 -96 0
-2 -15 96 0
c gate 97 -31 -33 0
-31 -97 0
-33 -97 0
31 33 97 0
c gate 98 1 16 0
1 -98 0
16 -98 0
-1 -16 98 0
c gate 99 97 -98 0
97 -99 0
-98 -99 0
-97 98 99 0
c gate 100 -97 98 0
-97 -100 0
98 -100 0
97 -98 100 0
c gate 101 -99 -100 0
-99 -101 0
-100 -101 0
99 100 101 0
c gate 102 96 101 0
96 -102 0
101 -102 0
-96 -101 102 0
c gate 103 -96 -101 0
-96 -103 0
-101 -103 0
96 101 103 0
c gate 104 -102 -103 0
-102 -104 0
-103 -104 0
102 103 104 0
c gate 105 4 13 0
4 -105 0
13 -105 0
-4 -13 105 0
c gate 106 5 12 0
5 -106 0
12 -106 0
-5 -12 106 0
c gate 107 105 -106 0
105 -107 0
-106 -107 0
-105 106 107 0
c gate 108 -105 106 0
-105 -108 0
106 -108 0
105 -106 108 0
c gate 109 -107 -108 0
-107 -109 0
-108 -109 0
107 108 109 0
c gate 110 104 -109 0
104 -110 0
-109 -110 0
-104 109 110 0
c gate 111 -104 109 0
-104 -111 0
109 -111 0
104 -109 111 0
c gate 112 -110 -111 0
-110 -112 0
-111 -112 0
110 111 112 0
c gate 113 95 112 0
95 -113 0
112 -113 0
-95 -112 113 0
c gate 114 -95 -112 0
-95 -114 0
-112 -114 0
95 112 114 0
c gate 115 -113 -114 0
-113 -115 0
-114 -115 0
113 114 115 0
c gate 116 -53 -56 0
-53 -116 0
-56 -116 0
53 56 116 0
c gate 117 -40 -42 0
-40 -117 0
-42 -117 0
40 42 117 0
c gate 118 116 -117 0
116 -118 0
-117 -118 0
-116 117 118 0
c gate 119 -116 117 0
-116 -119 0
117 -119 0
116 -117 119 0
c gate 120 -118 -119 0
-118 -120 0
-119 -120 0
118 119 120 0
c gate 121 115 -120 0
115 -121 0
-120 -121 0
-115 120 121 0
c gate 122 -115 120 0
-115 -122 0
120 -122 0
115 -120 122 0
c gate 123 -121 -122 0
-121 -123 0
-122 -123 0
121 122 123 0
c gate 124 86 123 0
86 -124 0
123 -124 0
-86 -123 124 0
c gate 125 -86 -123 0
-86 -125 0
-123 -125 0
86 123 125 0
c gate 126 -124 -125 0
-124 -126 0
-125 -126 0
124 125 126 0
c gate 127 26 126 0
26 -127 0
126 -127 0
-26 -126 127 0
c gate 128 3 10 0
3 -128 0
10 -128 0
-3 -10 128 0
c gate 129 4 9 0
4 -129 0
9 -129 0
-4 -9 129 0
c gate 130 128 129 0
128 -130 0
129 -130 0
-128 -129 130 0
c gate 131 2 11 0
2 -131 0
11 -131 0
-2 -11 131 0
c gate 132 -128 -129 0
-128 -132 0
-129 -132 0
128 129 132 0
c gate 133 -130 -132 0
-130 -133 0
-132 -133 0
130 132 133 0
c gate 134 131 133 0
131 -134 0
133 -134 0
-131 -133 134 0
c gate 135 -130 -134 0
-130 -135 0
-134 -135 0
130 134 135 0
c gate 136 -62 -64 0
-62 -136 0
-64 -136 0
62 64 136 0
c gate 137 -65 -136 0
-65 -137 0
-136 -137 0
65 136 137 0
c gate 138 -135 137 0
-135 -138 0
137 -138 0
135 -137 138 0
c gate 139 1 13 0
1 -139 0
13 -139 0
-1 -13 139 0
c gate 140 2 12 0
2 -140 0
12 -140 0
-2 -12 140 0
c gate 141 -139 -140 0
-139 -141 0
-140 -141 0
139 140 141 0
c gate 142 139 140 0
139 -142 0
140 -142 0
-139 -140 142 0
c gate 143 -141 -142 0
-141 -143 0
-142 -143 0
141 142 143 0
c gate 144 135 -137 0
135 -144 0
-137 -144 0
-135 137 144 0
c gate 145 -138 -144 0
-138 -145 0
-144 -145 0
138 144 145 0
c gate 146 143 145 0
143 -146 0
145 -146 0
-143 -145 146 0
c gate 147 -138 -146 0
-138 -147 0
-146 -147 0
138 146 147 0
c gate 148 -71 73 0
-71 -148 0
73 -148 0
71 -73 148 0
c gate 149 -74 -148 0
-74 -149 0
-148 -149 0
74 148 149 0
c gate 150 -147 -149 0
-147 -150 0
-149 -150 0
147 149 150 0
c gate 151 147 149 0
147 -151 0
149 -151 0
-147 -149 151 0
c gate 152 -150 -151 0
-150 -152 0
-151 -152 0
150 151 152 0
c gate 153 142 152 0
142 -153 0
152 -153 0
-142 -152 153 0
c gate 154 -150 -153 0
-150 -154 0
-153 -154 0
150 153 154 0
c gate 155 -78 -80 0
-78 -155 0
-80 -155 0
78 80 155 0
c gate 156 -81 -155 0
-81 -156 0
-155 -156 0
81 155 156 0
c gate 157 -154 156 0
-154 -157 0
156 -157 0
154 -156 157 0
c gate 158 -26 -126 0
-26 -158 0
-126 -158 0
26 126 158 0
c gate 159 157 -158 0
157 -159 0
-158 -159 0
-157 158 159 0
c gate 160 -127 159 0
-127 -160 0
159 -160 0
127 -159 160 0
c PO
160 0
